Running HiGHS 1.8.1 (git hash: 4a7f24a): Copyright (c) 2024 HiGHS under MIT licence terms
Reading model file  32Vertices.lp  returns a status of  HighsStatus.kOk
Coefficient ranges:
  Matrix [1e-03, 1e+03]
  Cost   [1e+00, 1e+00]
  Bound  [1e+00, 2e+09]
  RHS    [1e+00, 1e+03]
Presolving model
793 rows, 814 cols, 3276 nonzeros  0s
644 rows, 628 cols, 3180 nonzeros  0s
362 rows, 303 cols, 1592 nonzeros  0s
325 rows, 261 cols, 1299 nonzeros  0s

Solving MIP model with:
   325 rows
   261 cols (36 binary, 0 integer, 5 implied int., 220 continuous)
   1299 nonzeros
MIP-Timing:       0.017 - starting analytic centre calculation

Src: B => Branching; C => Central rounding; F => Feasibility pump; H => Heuristic; L => Sub-MIP;
     P => Empty MIP; R => Randomized rounding; S => Solve LP; T => Evaluate node; U => Unbounded;
     z => Trivial zero; l => Trivial lower; u => Trivial upper; p => Trivial point

        Nodes      |    B&B Tree     |            Objective Bounds              |  Dynamic Constraints |       Work      
Src  Proc. InQueue |  Leaves   Expl. | BestBound       BestSol              Gap |   Cuts   InLp Confl. | LpIters     Time

         0       0         0   0.00%   -0.6303548335   inf                  inf        0      0      0         0     0.0s
         0       0         0   0.00%   -0.1996368782   inf                  inf        0      0      3       318     0.0s
 C       0       0         0   0.00%   -0.1782936291   -0.074366606     139.75%      291     35     15       443     0.1s
 L       0       0         0   0.00%   -0.1741165664   -0.1102229875     57.97%      461     62     15       586     0.1s

2.8% inactive integer columns, restarting
Model after restart has 306 rows, 245 cols (35 bin., 0 int., 4 impl., 206 cont.), and 1183 nonzeros

         0       0         0   0.00%   -0.1741165664   -0.1102229875     57.97%       30      0      0       888     0.1s
         0       0         0   0.00%   -0.1741165664   -0.1102229875     57.97%       31     24      0      1153     0.1s

Symmetry detection completed in 0.0s
No symmetry present

 B      20       1         8   8.98%   -0.1717171576   -0.1102229875     55.79%      181     29     71      3619     0.4s
        37       0        19 100.00%   -0.1102229875   -0.1102229875      0.00%      379     46    169      5764     0.5s

Solving report
  Model             32Vertices
  Status            Optimal
  Primal bound      -0.1102229875
  Dual bound        -0.1102229875
  Gap               0% (tolerance: 0.01%)
  P-D integral      0.318319259344
  Solution status   feasible
                    -0.1102229875 (objective)
                    0 (bound viol.)
                    2.45591047499e-12 (int. viol.)
                    0 (row viol.)
  Timing            0.50 (total)
                    0.00 (presolve)
                    0.00 (solve)
                    0.00 (postsolve)
  Max sub-MIP depth 3
  Nodes             37
  Repair LPs        0 (0 feasible; 0 iterations)
  LP iterations     5764 (total)
                    2901 (strong br.)
                    360 (separation)
                    988 (heuristics)
Model status =  Optimal

Optimal objective =  -0.11022298749987626
Iteration count =  5764
Primal solution status =  Feasible
Dual solution status =  None
Basis validity =  Not valid
Writing the solution to ./32Vertices.sol
